c generated by sgen
p cnf 109 228
-2 -3 -4 0
-1 -3 -4 0
-1 -2 -4 0
-1 -2 -3 0
-6 -7 -8 0
-5 -7 -8 0
-5 -6 -8 0
-5 -6 -7 0
-10 -11 -12 0
-9 -11 -12 0
-9 -10 -12 0
-9 -10 -11 0
-14 -15 -16 0
-13 -15 -16 0
-13 -14 -16 0
-13 -14 -15 0
-18 -19 -20 0
-17 -19 -20 0
-17 -18 -20 0
-17 -18 -19 0
-22 -23 -24 0
-21 -23 -24 0
-21 -22 -24 0
-21 -22 -23 0
-26 -27 -28 0
-25 -27 -28 0
-25 -26 -28 0
-25 -26 -27 0
-30 -31 -32 0
-29 -31 -32 0
-29 -30 -32 0
-29 -30 -31 0
-34 -35 -36 0
-33 -35 -36 0
-33 -34 -36 0
-33 -34 -35 0
-38 -39 -40 0
-37 -39 -40 0
-37 -38 -40 0
-37 -38 -39 0
-42 -43 -44 0
-41 -43 -44 0
-41 -42 -44 0
-41 -42 -43 0
-46 -47 -48 0
-45 -47 -48 0
-45 -46 -48 0
-45 -46 -47 0
-50 -51 -52 0
-49 -51 -52 0
-49 -50 -52 0
-49 -50 -51 0
-54 -55 -56 0
-53 -55 -56 0
-53 -54 -56 0
-53 -54 -55 0
-58 -59 -60 0
-57 -59 -60 0
-57 -58 -60 0
-57 -58 -59 0
-62 -63 -64 0
-61 -63 -64 0
-61 -62 -64 0
-61 -62 -63 0
-66 -67 -68 0
-65 -67 -68 0
-65 -66 -68 0
-65 -66 -67 0
-70 -71 -72 0
-69 -71 -72 0
-69 -70 -72 0
-69 -70 -71 0
-74 -75 -76 0
-73 -75 -76 0
-73 -74 -76 0
-73 -74 -75 0
-78 -79 -80 0
-77 -79 -80 0
-77 -78 -80 0
-77 -78 -79 0
-82 -83 -84 0
-81 -83 -84 0
-81 -82 -84 0
-81 -82 -83 0
-86 -87 -88 0
-85 -87 -88 0
-85 -86 -88 0
-85 -86 -87 0
-90 -91 -92 0
-89 -91 -92 0
-89 -90 -92 0
-89 -90 -91 0
-94 -95 -96 0
-93 -95 -96 0
-93 -94 -96 0
-93 -94 -95 0
-98 -99 -100 0
-97 -99 -100 0
-97 -98 -100 0
-97 -98 -99 0
-102 -103 -104 0
-101 -103 -104 0
-101 -102 -104 0
-101 -102 -103 0
-105 -106 -107 0
-105 -106 -108 0
-105 -106 -109 0
-105 -107 -108 0
-105 -107 -109 0
-105 -108 -109 0
-106 -107 -108 0
-106 -107 -109 0
-106 -108 -109 0
-107 -108 -109 0
75 86 65 0
77 86 65 0
77 75 65 0
77 75 86 0
51 18 26 0
87 18 26 0
87 51 26 0
87 51 18 0
80 71 50 0
91 71 50 0
91 80 50 0
91 80 71 0
61 69 28 0
57 69 28 0
57 61 28 0
57 61 69 0
60 36 45 0
49 36 45 0
49 60 45 0
49 60 36 0
44 14 55 0
59 14 55 0
59 44 55 0
59 44 14 0
99 21 103 0
42 21 103 0
42 99 103 0
42 99 21 0
78 25 101 0
37 25 101 0
37 78 101 0
37 78 25 0
10 15 100 0
31 15 100 0
31 10 100 0
31 10 15 0
73 4 8 0
52 4 8 0
52 73 8 0
52 73 4 0
56 72 96 0
24 72 96 0
24 56 96 0
24 56 72 0
74 105 29 0
34 105 29 0
34 74 29 0
34 74 105 0
107 43 12 0
85 43 12 0
85 107 12 0
85 107 43 0
98 27 82 0
38 27 82 0
38 98 82 0
38 98 27 0
104 9 58 0
3 9 58 0
3 104 58 0
3 104 9 0
13 94 19 0
109 94 19 0
109 13 19 0
109 13 94 0
88 90 97 0
93 90 97 0
93 88 97 0
93 88 90 0
30 54 48 0
5 54 48 0
5 30 48 0
5 30 54 0
108 22 63 0
7 22 63 0
7 108 63 0
7 108 22 0
53 81 106 0
102 81 106 0
102 53 106 0
102 53 81 0
84 23 35 0
92 23 35 0
92 84 35 0
92 84 23 0
41 68 89 0
32 68 89 0
32 41 89 0
32 41 68 0
95 2 79 0
46 2 79 0
46 95 79 0
46 95 2 0
67 17 6 0
33 17 6 0
33 67 6 0
33 67 17 0
62 83 66 0
16 83 66 0
16 62 66 0
16 62 83 0
64 20 1 0
40 20 1 0
40 64 1 0
40 64 20 0
70 47 39 0
70 47 11 0
70 47 76 0
70 39 11 0
70 39 76 0
70 11 76 0
47 39 11 0
47 39 76 0
47 11 76 0
39 11 76 0
